\ File written by HiGHS .lp file handler
min
 obj: -1 COL00004 
st
 ROW00001: +2 COL00001 +1 COL00002 +1.5 COL00003 <= +170
 ROW00002: +1 COL00001 +2 COL00002 +1.5 COL00003 <= +130
 ROW00003: <= +0
 ROW00004: +1 COL00004 -1 COL00005 = +0
 ROW00005: -1 COL00001 +1 COL00006 = +0
 ROW00006: -1 COL00002 +1 COL00007 = +0
 ROW00007: -1 COL00003 +1 COL00008 = +0
 ROW00008: -1 COL00006 +1 COL00009 <= +0
 ROW00009: -1 COL00007 +1 COL00010 <= +0
 ROW00010: -1 COL00008 +1 COL00011 <= +0
 ROW00011: -1 COL00009 +2 COL00012 +1 COL00013 +1.5 COL00014 <= +170
 ROW00012: -1 COL00010 +1 COL00012 +2 COL00013 +1.5 COL00014 <= +130
 ROW00013: +1 COL00005 -1 COL00011 <= +0
 ROW00014: +1.1 COL00004 -1 COL00015 = +0
 ROW00015: +1 COL00005 +1 COL00015 -1 COL00016 = +0
 ROW00016: -1 COL00006 -1 COL00012 +1 COL00017 = +0
 ROW00017: -1 COL00007 -1 COL00013 +1 COL00018 = +0
 ROW00018: -1 COL00008 -1 COL00014 +1 COL00019 = +0
 ROW00019: -1 COL00017 +1 COL00020 <= +0
 ROW00020: -1 COL00018 +1 COL00021 <= +0
 ROW00021: -1 COL00019 +1 COL00022 <= +0
 ROW00022: -1 COL00020 +2 COL00023 +1 COL00024 +1.5 COL00025 <= +170
 ROW00023: -1 COL00021 +1 COL00023 +2 COL00024 +1.5 COL00025 <= +130
 ROW00024: +1 COL00016 -1 COL00022 <= +0
 ROW00025: +1.1 COL00015 -1 COL00026 = +0
 ROW00026: +1 COL00016 +1 COL00026 -1 COL00027 = +0
 ROW00027: -1 COL00017 -1 COL00023 +1 COL00028 = +0
 ROW00028: -1 COL00018 -1 COL00024 +1 COL00029 = +0
 ROW00029: -1 COL00019 -1 COL00025 +1 COL00030 = +0
 ROW00030: -1 COL00028 +1 COL00031 <= +0
 ROW00031: -1 COL00029 +1 COL00032 <= +0
 ROW00032: -1 COL00030 +1 COL00033 <= +0
 ROW00033: -1 COL00031 +2 COL00034 +1 COL00035 +1.5 COL00036 <= +170
 ROW00034: -1 COL00032 +1 COL00034 +2 COL00035 +1.5 COL00036 <= +130
 ROW00035: +1 COL00027 -1 COL00033 <= +0
 ROW00036: +1.1 COL00026 -1 COL00037 = +0
 ROW00037: +1 COL00027 +1 COL00037 -1 COL00038 = +0
 ROW00038: -1 COL00028 -1 COL00034 +1 COL00039 = +0
 ROW00039: -1 COL00029 -1 COL00035 +1 COL00040 = +0
 ROW00040: -1 COL00030 -1 COL00036 +1 COL00041 = +0
 ROW00041: -1 COL00039 +1 COL00042 <= +0
 ROW00042: -1 COL00040 +1 COL00043 <= +0
 ROW00043: -1 COL00041 +1 COL00044 <= +0
 ROW00044: -1 COL00042 +2 COL00045 +1 COL00046 +1.5 COL00047 <= +170
 ROW00045: -1 COL00043 +1 COL00045 +2 COL00046 +1.5 COL00047 <= +130
 ROW00046: +1 COL00038 -1 COL00044 <= +0
 ROW00047: +1.1 COL00037 -1 COL00048 = +0
 ROW00048: -0.8 COL00045 +0.1 COL00046 +0.15 COL00047 <= +0
 ROW00049: +0.1 COL00045 -0.8 COL00046 +0.15 COL00047 <= +0
 ROW00050: -1 COL00047 +1 COL00048 <= +0
bounds
end
